NAME: Random_60_3
ELLAPSED_TIME_(ms): 200
TOUR_SIZE: 1107
TOUR_SECTION
0
46
51
41
10
38
39
40
9
27
29
45
37
44
11
24
16
21
52
33
2
31
34
36
35
7
47
59
15
56
28
8
50
1
26
58
49
12
19
22
53
13
43
32
30
4
3
54
17
14
55
20
18
48
6
25
57
42
5
23
0
EOF
